(set-logic HORN)
(declare-fun state (Bool (Array Int Int) Int Int Int Bool Bool Bool) Bool)
(assert (forall ((|A_2| Bool) (|C_2| (Array Int Int)) (|D_2| Int) (|E_2| Int) (|H_2| Int) (|.loc.8| Bool) (|.loc.9| Bool) (|E_1| Bool) (|.loc.15| Bool) (|.loc.16| Bool) (|.y.14| Int) (|.y.13| Int) (|.y.12| Int) (|.y.10| Bool) (|.y.11| (Array Int Int)) (|.xtv.1| Bool)) (=> (and (not .loc.9) (not .loc.8)) (state |A_2| |C_2| |D_2| |E_2| |H_2| |.loc.8| |.loc.9| |E_1|))))
(assert (forall ((|A_2| Bool) (|C_2| (Array Int Int)) (|D_2| Int) (|E_2| Int) (|H_2| Int) (|.loc.8| Bool) (|.loc.9| Bool) (|E_1| Bool) (|.loc.15| Bool) (|.loc.16| Bool) (|.y.14| Int) (|.y.13| Int) (|.y.12| Int) (|.y.10| Bool) (|.y.11| (Array Int Int)) (|.xtv.1| Bool)) (=> (and (state |A_2| |C_2| |D_2| |E_2| |H_2| |.loc.8| |.loc.9| |E_1|) (let ((.def_25 (not (<= 0 H_2)))) (let ((.def_33 (not (<= (- 4) (+ D_2 (* (- 1) H_2)))))) (let ((.def_35 (<= (- 4) D_2))) (let ((.def_36 (not .def_35))) (let ((.def_40 (and (or (or .def_25 .def_33) .def_36) (or .def_35 (and .def_25 .def_33))))) (let ((.def_42 (= (+ D_2 (* (- 1) H_2)) (- 4)))) (let ((.def_46 (<= 0 E_2))) (let ((.def_51 (not (<= (+ D_2 (* (- 1) E_2)) (- 4))))) (let ((.def_63 (and (and (not A_2) (not (and (or (not .def_46) (or .def_36 .def_51)) (or .def_46 (and .def_36 .def_51))))) (or (<= D_2 0) (not (<= D_2 (- 4))))))) (let ((.def_70 (<= .y.14 4))) (let ((.def_96 (not .loc.16))) (and (not .loc.9) (or (or (and (not .loc.15) (and (and .loc.8 (and (or (not .def_40) (not .def_42)) .def_63)) .loc.16)) (and (not .def_70) (and (or .def_70 (not (<= .y.13 0))) (and (or .def_70 (not (<= .y.14 0))) (and (= (+ .y.14 (* (- 1) .y.13)) (- 24)) (and (= (+ .y.14 (* (- 1) .y.12)) 4) (and (not .y.10) (and (or .def_70 (not (<= .y.12 0))) (and (not .loc.8) (and .loc.15 .def_96)))))))))) (and (= H_2 .y.14) (and (= E_2 .y.13) (and (or (= E_1 .def_40) (= E_1 .def_42)) (and (= (+ D_2 (* (- 1) .y.12)) (- 4)) (and (= (store C_2 D_2 1) .y.11) (and (= .y.10 (not E_1)) (and .def_96 (and .loc.15 (and .loc.8 .def_63))))))))))))))))))))))) (state |.y.10| |.y.11| |.y.12| |.y.13| |.y.14| |.loc.15| |.loc.16| |.xtv.1|))))
(assert (forall ((|A_2| Bool) (|C_2| (Array Int Int)) (|D_2| Int) (|E_2| Int) (|H_2| Int) (|.loc.8| Bool) (|.loc.9| Bool) (|E_1| Bool) (|.loc.15| Bool) (|.loc.16| Bool) (|.y.14| Int) (|.y.13| Int) (|.y.12| Int) (|.y.10| Bool) (|.y.11| (Array Int Int)) (|.xtv.1| Bool)) (=> (state |A_2| |C_2| |D_2| |E_2| |H_2| |.loc.8| |.loc.9| |E_1|) (not (and .loc.9 (not .loc.8))))))
(check-sat)
